c description: Tseitin formula on Random 4-regular graph of 60 vertices, with odd charge
c generator: CNFgen (0.9.2)
c copyright: (C) 2012-2022 Massimo Lauria <massimo.lauria@uniroma1.it>
c url: https://massimolauria.net/cnfgen
c command line: cnfgen tseitin 60 4
c
p cnf 120 480
1 2 3 -4 0
1 2 -3 4 0
1 -2 3 4 0
1 -2 -3 -4 0
-1 2 3 4 0
-1 2 -3 -4 0
-1 -2 3 -4 0
-1 -2 -3 4 0
5 6 7 8 0
5 6 -7 -8 0
5 -6 7 -8 0
5 -6 -7 8 0
-5 6 7 -8 0
-5 6 -7 8 0
-5 -6 7 8 0
-5 -6 -7 -8 0
9 10 11 -12 0
9 10 -11 12 0
9 -10 11 12 0
9 -10 -11 -12 0
-9 10 11 12 0
-9 10 -11 -12 0
-9 -10 11 -12 0
-9 -10 -11 12 0
13 14 15 -16 0
13 14 -15 16 0
13 -14 15 16 0
13 -14 -15 -16 0
-13 14 15 16 0
-13 14 -15 -16 0
-13 -14 15 -16 0
-13 -14 -15 16 0
9 17 18 19 0
9 17 -18 -19 0
9 -17 18 -19 0
9 -17 -18 19 0
-9 17 18 -19 0
-9 17 -18 19 0
-9 -17 18 19 0
-9 -17 -18 -19 0
17 20 21 -22 0
17 20 -21 22 0
17 -20 21 22 0
17 -20 -21 -22 0
-17 20 21 22 0
-17 20 -21 -22 0
-17 -20 21 -22 0
-17 -20 -21 22 0
23 24 25 -26 0
23 24 -25 26 0
23 -24 25 26 0
23 -24 -25 -26 0
-23 24 25 26 0
-23 24 -25 -26 0
-23 -24 25 -26 0
-23 -24 -25 26 0
27 28 29 30 0
27 28 -29 -30 0
27 -28 29 -30 0
27 -28 -29 30 0
-27 28 29 -30 0
-27 28 -29 30 0
-27 -28 29 30 0
-27 -28 -29 -30 0
23 31 32 33 0
23 31 -32 -33 0
23 -31 32 -33 0
23 -31 -32 33 0
-23 31 32 -33 0
-23 31 -32 33 0
-23 -31 32 33 0
-23 -31 -32 -33 0
1 34 35 36 0
1 34 -35 -36 0
1 -34 35 -36 0
1 -34 -35 36 0
-1 34 35 -36 0
-1 34 -35 36 0
-1 -34 35 36 0
-1 -34 -35 -36 0
37 38 39 40 0
37 38 -39 -40 0
37 -38 39 -40 0
37 -38 -39 40 0
-37 38 39 -40 0
-37 38 -39 40 0
-37 -38 39 40 0
-37 -38 -39 -40 0
41 42 43 44 0
41 42 -43 -44 0
41 -42 43 -44 0
41 -42 -43 44 0
-41 42 43 -44 0
-41 42 -43 44 0
-41 -42 43 44 0
-41 -42 -43 -44 0
5 45 46 47 0
5 45 -46 -47 0
5 -45 46 -47 0
5 -45 -46 47 0
-5 45 46 -47 0
-5 45 -46 47 0
-5 -45 46 47 0
-5 -45 -46 -47 0
48 49 50 -51 0
48 49 -50 51 0
48 -49 50 51 0
48 -49 -50 -51 0
-48 49 50 51 0
-48 49 -50 -51 0
-48 -49 50 -51 0
-48 -49 -50 51 0
2 41 52 -53 0
2 41 -52 53 0
2 -41 52 53 0
2 -41 -52 -53 0
-2 41 52 53 0
-2 41 -52 -53 0
-2 -41 52 -53 0
-2 -41 -52 53 0
6 54 55 -56 0
6 54 -55 56 0
6 -54 55 56 0
6 -54 -55 -56 0
-6 54 55 56 0
-6 54 -55 -56 0
-6 -54 55 -56 0
-6 -54 -55 56 0
54 57 58 -59 0
54 57 -58 59 0
54 -57 58 59 0
54 -57 -58 -59 0
-54 57 58 59 0
-54 57 -58 -59 0
-54 -57 58 -59 0
-54 -57 -58 59 0
20 52 60 61 0
20 52 -60 -61 0
20 -52 60 -61 0
20 -52 -60 61 0
-20 52 60 -61 0
-20 52 -60 61 0
-20 -52 60 61 0
-20 -52 -60 -61 0
62 63 64 65 0
62 63 -64 -65 0
62 -63 64 -65 0
62 -63 -64 65 0
-62 63 64 -65 0
-62 63 -64 65 0
-62 -63 64 65 0
-62 -63 -64 -65 0
3 62 66 67 0
3 62 -66 -67 0
3 -62 66 -67 0
3 -62 -66 67 0
-3 62 66 -67 0
-3 62 -66 67 0
-3 -62 66 67 0
-3 -62 -66 -67 0
42 60 68 69 0
42 60 -68 -69 0
42 -60 68 -69 0
42 -60 -68 69 0
-42 60 68 -69 0
-42 60 -68 69 0
-42 -60 68 69 0
-42 -60 -68 -69 0
13 70 71 72 0
13 70 -71 -72 0
13 -70 71 -72 0
13 -70 -71 72 0
-13 70 71 -72 0
-13 70 -71 72 0
-13 -70 71 72 0
-13 -70 -71 -72 0
34 73 74 75 0
34 73 -74 -75 0
34 -73 74 -75 0
34 -73 -74 75 0
-34 73 74 -75 0
-34 73 -74 75 0
-34 -73 74 75 0
-34 -73 -74 -75 0
53 57 76 77 0
53 57 -76 -77 0
53 -57 76 -77 0
53 -57 -76 77 0
-53 57 76 -77 0
-53 57 -76 77 0
-53 -57 76 77 0
-53 -57 -76 -77 0
45 58 78 79 0
45 58 -78 -79 0
45 -58 78 -79 0
45 -58 -78 79 0
-45 58 78 -79 0
-45 58 -78 79 0
-45 -58 78 79 0
-45 -58 -78 -79 0
78 80 81 -82 0
78 80 -81 82 0
78 -80 81 82 0
78 -80 -81 -82 0
-78 80 81 82 0
-78 80 -81 -82 0
-78 -80 81 -82 0
-78 -80 -81 82 0
48 83 84 85 0
48 83 -84 -85 0
48 -83 84 -85 0
48 -83 -84 85 0
-48 83 84 -85 0
-48 83 -84 85 0
-48 -83 84 85 0
-48 -83 -84 -85 0
76 86 87 88 0
76 86 -87 -88 0
76 -86 87 -88 0
76 -86 -87 88 0
-76 86 87 -88 0
-76 86 -87 88 0
-76 -86 87 88 0
-76 -86 -87 -88 0
73 89 90 91 0
73 89 -90 -91 0
73 -89 90 -91 0
73 -89 -90 91 0
-73 89 90 -91 0
-73 89 -90 91 0
-73 -89 90 91 0
-73 -89 -90 -91 0
80 92 93 94 0
80 92 -93 -94 0
80 -92 93 -94 0
80 -92 -93 94 0
-80 92 93 -94 0
-80 92 -93 94 0
-80 -92 93 94 0
-80 -92 -93 -94 0
81 89 95 96 0
81 89 -95 -96 0
81 -89 95 -96 0
81 -89 -95 96 0
-81 89 95 -96 0
-81 89 -95 96 0
-81 -89 95 96 0
-81 -89 -95 -96 0
27 97 98 99 0
27 97 -98 -99 0
27 -97 98 -99 0
27 -97 -98 99 0
-27 97 98 -99 0
-27 97 -98 99 0
-27 -97 98 99 0
-27 -97 -98 -99 0
24 31 35 100 0
24 31 -35 -100 0
24 -31 35 -100 0
24 -31 -35 100 0
-24 31 35 -100 0
-24 31 -35 100 0
-24 -31 35 100 0
-24 -31 -35 -100 0
14 101 102 -103 0
14 101 -102 103 0
14 -101 102 103 0
14 -101 -102 -103 0
-14 101 102 103 0
-14 101 -102 -103 0
-14 -101 102 -103 0
-14 -101 -102 103 0
70 104 105 -106 0
70 104 -105 106 0
70 -104 105 106 0
70 -104 -105 -106 0
-70 104 105 106 0
-70 104 -105 -106 0
-70 -104 105 -106 0
-70 -104 -105 106 0
43 49 59 -107 0
43 49 -59 107 0
43 -49 59 107 0
43 -49 -59 -107 0
-43 49 59 107 0
-43 49 -59 -107 0
-43 -49 59 -107 0
-43 -49 -59 107 0
83 108 109 -110 0
83 108 -109 110 0
83 -108 109 110 0
83 -108 -109 -110 0
-83 108 109 110 0
-83 108 -109 -110 0
-83 -108 109 -110 0
-83 -108 -109 110 0
71 97 111 112 0
71 97 -111 -112 0
71 -97 111 -112 0
71 -97 -111 112 0
-71 97 111 -112 0
-71 97 -111 112 0
-71 -97 111 112 0
-71 -97 -111 -112 0
10 37 55 -92 0
10 37 -55 92 0
10 -37 55 92 0
10 -37 -55 -92 0
-10 37 55 92 0
-10 37 -55 -92 0
-10 -37 55 -92 0
-10 -37 -55 92 0
32 44 77 -98 0
32 44 -77 98 0
32 -44 77 98 0
32 -44 -77 -98 0
-32 44 77 98 0
-32 44 -77 -98 0
-32 -44 77 -98 0
-32 -44 -77 98 0
11 21 56 -86 0
11 21 -56 86 0
11 -21 56 86 0
11 -21 -56 -86 0
-11 21 56 86 0
-11 21 -56 -86 0
-11 -21 56 -86 0
-11 -21 -56 86 0
15 33 46 -101 0
15 33 -46 101 0
15 -33 46 101 0
15 -33 -46 -101 0
-15 33 46 101 0
-15 33 -46 -101 0
-15 -33 46 -101 0
-15 -33 -46 101 0
82 111 113 114 0
82 111 -113 -114 0
82 -111 113 -114 0
82 -111 -113 114 0
-82 111 113 -114 0
-82 111 -113 114 0
-82 -111 113 114 0
-82 -111 -113 -114 0
36 87 100 115 0
36 87 -100 -115 0
36 -87 100 -115 0
36 -87 -100 115 0
-36 87 100 -115 0
-36 87 -100 115 0
-36 -87 100 115 0
-36 -87 -100 -115 0
47 63 84 116 0
47 63 -84 -116 0
47 -63 84 -116 0
47 -63 -84 116 0
-47 63 84 -116 0
-47 63 -84 116 0
-47 -63 84 116 0
-47 -63 -84 -116 0
28 104 117 -118 0
28 104 -117 118 0
28 -104 117 118 0
28 -104 -117 -118 0
-28 104 117 118 0
-28 104 -117 -118 0
-28 -104 117 -118 0
-28 -104 -117 118 0
68 105 108 117 0
68 105 -108 -117 0
68 -105 108 -117 0
68 -105 -108 117 0
-68 105 108 -117 0
-68 105 -108 117 0
-68 -105 108 117 0
-68 -105 -108 -117 0
12 18 38 119 0
12 18 -38 -119 0
12 -18 38 -119 0
12 -18 -38 119 0
-12 18 38 -119 0
-12 18 -38 119 0
-12 -18 38 119 0
-12 -18 -38 -119 0
7 64 99 107 0
7 64 -99 -107 0
7 -64 99 -107 0
7 -64 -99 107 0
-7 64 99 -107 0
-7 64 -99 107 0
-7 -64 99 107 0
-7 -64 -99 -107 0
50 74 90 -102 0
50 74 -90 102 0
50 -74 90 102 0
50 -74 -90 -102 0
-50 74 90 102 0
-50 74 -90 -102 0
-50 -74 90 -102 0
-50 -74 -90 102 0
25 66 72 -95 0
25 66 -72 95 0
25 -66 72 95 0
25 -66 -72 -95 0
-25 66 72 95 0
-25 66 -72 -95 0
-25 -66 72 -95 0
-25 -66 -72 95 0
8 51 109 -118 0
8 51 -109 118 0
8 -51 109 118 0
8 -51 -109 -118 0
-8 51 109 118 0
-8 51 -109 -118 0
-8 -51 109 -118 0
-8 -51 -109 118 0
16 69 110 -113 0
16 69 -110 113 0
16 -69 110 113 0
16 -69 -110 -113 0
-16 69 110 113 0
-16 69 -110 -113 0
-16 -69 110 -113 0
-16 -69 -110 113 0
29 75 79 -103 0
29 75 -79 103 0
29 -75 79 103 0
29 -75 -79 -103 0
-29 75 79 103 0
-29 75 -79 -103 0
-29 -75 79 -103 0
-29 -75 -79 103 0
88 91 112 -119 0
88 91 -112 119 0
88 -91 112 119 0
88 -91 -112 -119 0
-88 91 112 119 0
-88 91 -112 -119 0
-88 -91 112 -119 0
-88 -91 -112 119 0
39 65 85 -116 0
39 65 -85 116 0
39 -65 85 116 0
39 -65 -85 -116 0
-39 65 85 116 0
-39 65 -85 -116 0
-39 -65 85 -116 0
-39 -65 -85 116 0
19 26 93 120 0
19 26 -93 -120 0
19 -26 93 -120 0
19 -26 -93 120 0
-19 26 93 -120 0
-19 26 -93 120 0
-19 -26 93 120 0
-19 -26 -93 -120 0
4 22 30 67 0
4 22 -30 -67 0
4 -22 30 -67 0
4 -22 -30 67 0
-4 22 30 -67 0
-4 22 -30 67 0
-4 -22 30 67 0
-4 -22 -30 -67 0
40 61 94 96 0
40 61 -94 -96 0
40 -61 94 -96 0
40 -61 -94 96 0
-40 61 94 -96 0
-40 61 -94 96 0
-40 -61 94 96 0
-40 -61 -94 -96 0
106 114 115 -120 0
106 114 -115 120 0
106 -114 115 120 0
106 -114 -115 -120 0
-106 114 115 120 0
-106 114 -115 -120 0
-106 -114 115 -120 0
-106 -114 -115 120 0
